(set-info :origin "driver benchmark extracted from Microsoft SDV")
(set-logic HORN)
(declare-fun Proc21 (Int Int Int Bool Int Int Int Int Int) Bool)
(declare-fun Proc37 (Int Int Int Bool) Bool)
(declare-fun Proc24 (Int Int Int Bool Int Int) Bool)
(declare-fun Proc4 (Int Int Int Bool Int) Bool)
(declare-fun Proc42 (Int Int Int Bool Int Int Int Bool Int) Bool)
(declare-fun Proc51 (Int Int Int Bool Int) Bool)
(declare-fun Proc39 (Int Int Int Bool Int Int) Bool)
(declare-fun Proc31 (Int Int Int Bool Int Int) Bool)
(declare-fun Proc34 (Int Int Int Bool) Bool)
(declare-fun Proc61 (Int Int Int Bool) Bool)
(declare-fun Proc54 (Int Int Int Bool Int) Bool)
(declare-fun Proc59 (Int Int Int Bool Int) Bool)
(declare-fun Proc41 (Int Int Int Bool Int Int) Bool)
(declare-fun Proc40 (Int Int Int Bool Int) Bool)
(declare-fun Proc22 (Int Int Int Bool Int Int Int Int) Bool)
(declare-fun Proc23 (Int Int Int Bool Int Int Int) Bool)
(declare-fun Proc14 (Int Int Int Bool Int) Bool)
(declare-fun Proc10 (Int Int Int Bool Int Int) Bool)
(declare-fun Proc46 (Int Int Int Bool Int) Bool)
(declare-fun Proc44 (Int Int Int Bool Int) Bool)
(declare-fun Proc25 (Int Int Int Bool Int Int Int) Bool)
(declare-fun Proc13 (Int Int Int Bool Int Int Int Int Int) Bool)
(declare-fun Proc50 (Int Int Int Bool Int) Bool)
(declare-fun Proc58 (Int Int Int Bool Int Int) Bool)
(declare-fun Proc49 (Int Int Int Bool Int) Bool)
(declare-fun Proc38 (Int Int Int Bool) Bool)
(declare-fun Proc65 (Int Int Int Bool Int Bool Int Int Int) Bool)
(declare-fun Proc43 (Int Int Int Bool Int) Bool)
(declare-fun Proc2 (Int Int Int Bool Int Int) Bool)
(declare-fun Proc0 (Int Int Int Bool Int Int) Bool)
(declare-fun Proc1 (Int Int Int Bool Int Int) Bool)
(declare-fun Proc56 (Int Int Int Bool Int) Bool)
(declare-fun Proc27 (Int Int Int Bool Int) Bool)
(declare-fun Proc9 (Int Int Int Bool Int Int) Bool)
(declare-fun Proc17 (Int Int Int Bool Int Int Int Int) Bool)
(declare-fun Proc30 (Int Int Int Bool Int Int Int) Bool)
(declare-fun Proc32 (Int Int Int Bool Int Int Int Int) Bool)
(declare-fun Proc20 (Int Int Int Bool Int Int Int) Bool)
(declare-fun Proc6 (Int Int Int Bool Int) Bool)
(declare-fun Proc47 (Int Int Int Bool Int) Bool)
(declare-fun Proc8 (Int Int Int Bool Int Int Int Int) Bool)
(declare-fun Proc45 (Int Int Int Bool Int) Bool)
(declare-fun Proc33 (Int Int Int Bool Int Int Int Int) Bool)
(declare-fun Proc16 (Int Int Int Bool Int Int) Bool)
(declare-fun Proc7 (Int Int Int Bool Int Int Int) Bool)
(declare-fun Proc11 (Int Int Int Bool Int Int Int) Bool)
(declare-fun Proc60 (Int Int Int Bool Int Int Int Int Int) Bool)
(declare-fun Proc18 (Int Int Int Bool Int Int) Bool)
(declare-fun Proc26 (Int Int Int Bool Int Int Int) Bool)
(declare-fun Proc29 (Int Int Int Bool Int) Bool)
(declare-fun Proc15 (Int Int Int Bool Int Int Int Int Int) Bool)
(declare-fun Proc36 (Int Int Int Bool) Bool)
(declare-fun Proc3 (Int Int Int Bool Int) Bool)
(declare-fun Proc57 (Int Int Int Bool) Bool)
(declare-fun Proc28 (Int Int Int Bool Int Int Int Int) Bool)
(declare-fun Proc12 (Int Int Int Bool Int) Bool)
(declare-fun Proc52 (Int Int Int Bool Int) Bool)
(declare-fun Proc53 (Int Int Int Bool Int) Bool)
(declare-fun Proc55 (Int Int Int Bool Int) Bool)
(declare-fun Proc35 (Int Int Int Bool) Bool)
(declare-fun Proc63 (Int Int Int Bool Int Int) Bool)
(declare-fun Proc19 (Int Int Int Bool Int Int Int) Bool)
(declare-fun Proc64 (Int Int Int Bool) Bool)
(declare-fun Proc62 (Int Int Int Bool) Bool)
(declare-fun Proc5 (Int Int Int Bool Int Int Int Int) Bool)
(declare-fun Proc48 (Int Int Int Bool Int) Bool)
(assert (forall ((A Int) (B Int) (C Int) (D Int) (E Int) (F Bool))
  (let ((a!1 (not (or (not F) (= E 0) (not (Proc0 D C B F E 0))))))
    (=> a!1 (Proc1 D C B F A E)))))
(assert (forall ((A Int)
         (B Int)
         (C Int)
         (D Int)
         (E Int)
         (F Bool)
         (G Int)
         (H Int)
         (I Int)
         (J Int)
         (K Int)
         (L Int))
  (let ((a!1 (and (= L K) (not (<= J (+ 4 L)))))
        (a!2 (and (not (<= J K)) (= I J) (not (<= H (+ 4 I))) (not (<= H J)))))
  (let ((a!3 (or (not F)
                 (not a!1)
                 (not a!2)
                 (not (Proc2 H G E F 2 L))
                 (not (Proc3 H G E F I))
                 (not (Proc4 H G E F I))
                 (not (and (= D 0) (= C H))))))
    (=> (not a!3) (Proc5 K G E F B A D C))))))
(assert (forall ((A Int)
         (B Int)
         (C Int)
         (D Int)
         (E Int)
         (F Bool)
         (G Int)
         (H Int)
         (I Int)
         (J Int)
         (K Int)
         (L Int)
         (M Int))
  (let ((a!1 (and (not (<= K (+ 4 M))) (not (<= K L)))))
  (let ((a!2 (or (not F)
                 (not (= M L))
                 (not a!1)
                 (not (Proc2 K J I F 2 M))
                 (= H 0)
                 (not (Proc6 K J I F H))
                 (= G 0)
                 (= E 0)
                 (not (Proc7 K J I F D H C))
                 (not (and (= B C) (= A K))))))
    (=> (not a!2) (Proc8 L J I F G H B A))))))
(assert (forall ((A Int)
         (B Int)
         (C Int)
         (D Int)
         (E Int)
         (F Bool)
         (G Int)
         (H Int)
         (I Int))
  (let ((a!1 (not (or (not F)
                      (not (Proc9 I H G F E D))
                      (not (Proc10 I H G F D C))
                      (not (= B 0))))))
    (=> a!1 (Proc11 I H G F E A B)))))
(assert (forall ((A Int)
         (B Int)
         (C Int)
         (D Int)
         (E Int)
         (F Bool)
         (G Int)
         (H Int)
         (I Int)
         (J Int)
         (K Int)
         (L Int)
         (M Int)
         (N Int)
         (O Int)
         (P Int))
  (let ((a!1 (and (not (<= N (+ 128 P))) (not (<= N O))))
        (a!2 (not (and (= D G) (= C I) (= B H)))))
  (let ((a!3 (or (not (and (= H 1) (= G E))) a!2)))
  (let ((a!4 (and a!3 (or (= H 1) (not (Proc14 I M H F P)) (not (= G 0)) a!2))))
  (let ((a!5 (not (or (not F)
                      (not (= P O))
                      (not a!1)
                      (not (Proc12 N M L F P))
                      (not (Proc13 N M L F K 122 J I H))
                      a!4))))
    (=> a!5 (Proc15 O M L F A K D C B))))))))
(assert (forall ((A Int)
         (B Int)
         (C Int)
         (D Int)
         (E Int)
         (F Bool)
         (G Int)
         (H Int)
         (I Int)
         (J Int))
  (let ((a!1 (or (not F) (not (Proc16 J I H F G E)) (not (and (= D 0) (= C E))))))
    (=> (not a!1) (Proc17 J I H F B A D C)))))
(assert (forall ((A Int)
         (B Int)
         (C Int)
         (D Int)
         (E Int)
         (F Bool)
         (G Int)
         (H Int)
         (I Int)
         (J Int)
         (K Int)
         (L Int))
  (let ((a!1 (and (or (= I 0)
                      (not (Proc0 L K J F I 0))
                      (not (= G 0))
                      (not (= E G)))
                  (or (= I 0)
                      (not (Proc6 L K J F I))
                      (= D 0)
                      (= C 0)
                      (not (Proc7 L K J F B I A))
                      (not (= G A))
                      (not (= E G))))))
  (let ((a!2 (not (or (not F) (not (Proc18 L K J F I H)) (= H 0) a!1))))
    (=> a!2 (Proc19 L K J F D I E))))))
(assert (forall ((A Int)
         (B Int)
         (C Int)
         (D Int)
         (E Int)
         (F Bool)
         (G Int)
         (H Int)
         (I Int)
         (J Int))
  (let ((a!1 (not (or (not F)
                      (not (Proc6 J I H F G))
                      (= E 0)
                      (= D 0)
                      (not (Proc7 J I H F C G B))
                      (not (= A 0))))))
    (=> a!1 (Proc20 J I H F E G A)))))
(assert (forall ((A Int)
         (B Int)
         (C Int)
         (D Int)
         (E Int)
         (F Bool)
         (G Int)
         (H Int)
         (I Int)
         (J Int)
         (K Int)
         (L Int)
         (M Int)
         (N Int)
         (O Int))
  (let ((a!1 (and (not (<= M (+ 4 O))) (not (<= M N))))
        (a!2 (not (and (= J (- 513645724)) (Proc21 M L K F 1 12 J I H))))
        (a!3 (or (= I 0) (not (= G 0)) (not (and (= E G) (= D H)))))
        (a!4 (not (and (= C (- 1073741670)) (= G C)))))
  (let ((a!5 (or (not (= I 0)) a!4 (not (and (= E G) (= D H))))))
  (let ((a!6 (not (or (not F)
                      (not (= O N))
                      (not a!1)
                      (not (Proc2 M L K F 2 O))
                      a!2
                      (and a!3 a!5)))))
    (=> a!6 (Proc22 N L K F B A E D)))))))
(assert (forall ((A Int) (B Int) (C Int) (D Int) (E Int) (F Bool) (G Int) (H Int))
  (let ((a!1 (or (not F)
                 (= H 0)
                 (not (Proc0 G E D F H 0))
                 (not (= C (- 1073741536)))
                 (not (= B C)))))
    (=> (not a!1) (Proc23 G E D F A H B)))))
(assert (forall ((A Int) (B Int) (C Int) (D Int) (E Int) (F Bool) (G Int) (H Int))
  (let ((a!1 (not (or (not F) (not (Proc24 H G E F 1000 D)) (not (= C 0))))))
    (=> a!1 (Proc25 H G E F B A C)))))
(assert (forall ((A Int)
         (B Int)
         (C Int)
         (D Int)
         (E Int)
         (F Bool)
         (G Int)
         (H Int)
         (I Int)
         (J Int)
         (K Int)
         (L Int)
         (M Int)
         (N Int)
         (O Int))
  (let ((a!1 (and (= O N) (not (<= M (+ 4 O)))))
        (a!2 (and (not (<= M N)) (= L M) (not (<= K (+ 84 L))) (not (<= K M))))
        (a!3 (or (= H 0)
                 (not (Proc27 K J I F L))
                 (not (= G 0))
                 (not (and (= E G) (= D K)))))
        (a!4 (not (and (= C (- 1073741823)) (= G C)))))
  (let ((a!5 (or (not (= H 0)) a!4 (not (and (= E G) (= D K))))))
  (let ((a!6 (not (or (not F)
                      (not a!1)
                      (not a!2)
                      (not (Proc2 K J I F 31 O))
                      (not (Proc26 K J I F L 0 H))
                      (and a!3 a!5)))))
    (=> a!6 (Proc28 N J I F B A E D)))))))
(assert (forall ((A Int) (B Int) (C Int) (D Int) (F Bool)) (=> F (Proc12 D C B F A))))
(assert (forall ((A Int) (B Int) (C Int) (D Int) (E Int) (F Bool) (G Int) (H Int))
  (let ((a!1 (and (or (not (= G 1)) (not (= E G)))
                  (or (not (= G 0)) (not (= E G))))))
  (let ((a!2 (and (or (= H 0) (not (= G 1)) (not (= E G)))
                  (or (not (= H 0)) a!1))))
    (=> (not (or (not F) a!2)) (Proc26 D C B F A H E))))))
(assert (forall ((A Int)
         (B Int)
         (C Int)
         (D Int)
         (E Int)
         (F Bool)
         (G Int)
         (H Int)
         (I Int)
         (J Int)
         (K Int)
         (L Int)
         (M Int))
  (let ((a!1 (or (not (and (= M L) (= K 0))) (not (and (= J K) (= I M)))))
        (a!2 (and (not (<= G (+ 1 H))) (not (<= G L)))))
  (let ((a!3 (or (not (= H L))
                 (not a!2)
                 (not (and (= M G) (= K H)))
                 (not (and (= J K) (= I M))))))
    (=> (not (or (not F) (and a!1 a!3))) (Proc21 L E D F C B A J I))))))
(assert (forall ((A Int) (B Int) (C Int) (D Int) (F Bool)) (=> F (Proc14 D C B F A))))
(assert (forall ((A Int) (B Int) (C Int) (D Int) (F Bool)) (=> F (Proc27 D C B F A))))
(assert (forall ((A Int) (B Int) (C Int) (D Int) (F Bool))
  (=> (not (or (not F) (= D 0))) (Proc29 C B A F D))))
(assert (forall ((A Int) (B Int) (C Int) (D Int) (E Int) (F Bool) (G Int) (H Int))
  (let ((a!1 (and (or (not (= H 0)) (not (= G H)))
                  (or (not (= H E)) (not (= G H))))))
    (=> (not (or (not F) a!1)) (Proc24 D C B F A G)))))
(assert (forall ((A Int) (B Int) (C Int) (D Int) (E Int) (F Bool) (G Int))
  (let ((a!1 (not (or (not F) (not (= G E))))))
    (=> a!1 (Proc9 D C B F A G)))))
(assert (forall ((A Int) (B Int) (C Int) (D Int) (E Int) (F Bool) (G Int) (H Int))
  (let ((a!1 (and (not (<= E (+ 1 H))) (not (<= E G)))))
  (let ((a!2 (or (not F) (not (= H G)) (not a!1) (not (and (= D H) (= C E))))))
    (=> (not a!2) (Proc16 G B A F D C))))))
(assert (forall ((A Int) (B Int) (C Int) (D Int) (E Int) (F Bool) (G Int))
  (let ((a!1 (not (or (not F) (= G 0) (not (= E 259))))))
    (=> a!1 (Proc30 D C B F A G E)))))
(assert (forall ((A Int)
         (B Int)
         (C Int)
         (D Int)
         (E Int)
         (F Bool)
         (G Int)
         (H Int)
         (I Int)
         (J Int)
         (K Int))
  (let ((a!1 (and (not (<= I (+ 1 K))) (not (<= I J)))))
  (let ((a!2 (or (not F)
                 (not (= K J))
                 (not a!1)
                 (not (Proc31 I H G F K E))
                 (not (and (= D I) (= C E))))))
    (=> (not a!2) (Proc32 J H G F B A D C))))))
(assert (forall ((A Int) (B Int) (C Int) (D Int) (E Int) (F Bool))
  (let ((a!1 (not (or (not F) (not (= E 1))))))
    (=> a!1 (Proc31 D C B F A E)))))
(assert (forall ((A Int)
         (B Int)
         (C Int)
         (D Int)
         (E Int)
         (F Bool)
         (G Int)
         (H Int)
         (I Int)
         (J Int)
         (K Int)
         (L Int))
  (let ((a!1 (or (= L 1)
                 (not (and (= K J) (= I H)))
                 (not (and (= G K) (= E I)))))
        (a!2 (or (not (and (= K J) (= I H))) (not (and (= G K) (= E I)))))
        (a!3 (or (not (= A 1))
                 (not (and (= K B) (= I A)))
                 (not (and (= G K) (= E I)))))
        (a!4 (or (= A 1)
                 (not (and (= K B) (= I A)))
                 (not (and (= G K) (= E I)))))
        (a!5 (or (not (= D 0))
                 (not (and (= K J) (= I H)))
                 (not (and (= G K) (= E I))))))
  (let ((a!6 (and a!2
                  (or (= D 0) (not (Proc32 J L H F C D B A)) (and a!3 a!4))
                  a!5)))
  (let ((a!7 (and a!1 (or (not (= L 1)) a!6))))
    (=> (not (or (not F) a!7)) (Proc33 J L H F C D G E)))))))
(assert (forall ((A Int) (B Int) (C Int) (F Bool)) (=> F (Proc34 C B A F))))
(assert (forall ((A Int) (B Int) (C Int) (F Bool)) (=> F (Proc35 C B A F))))
(assert (forall ((A Int) (B Int) (C Int) (F Bool)) (=> F (Proc36 C B A F))))
(assert (forall ((A Int) (B Int) (C Int) (F Bool)) (=> F (Proc37 C B A F))))
(assert (forall ((A Int) (B Int) (C Int) (F Bool)) (=> F (Proc38 C B A F))))
(assert (forall ((A Int) (B Int) (C Int) (D Int) (E Int) (F Bool))
  (let ((a!1 (or (not F) (not (and (= E 0) (= D 0))))))
    (=> (not a!1) (Proc39 C B A F E D)))))
(assert (forall ((A Int)
         (B Int)
         (C Int)
         (D Int)
         (E Int)
         (F Bool)
         (G Int)
         (H Int)
         (I Int)
         (J Int)
         (K Int)
         (L Int)
         (M Int)
         (N Int)
         (O Int)
         (P Int)
         (Q Bool)
         (R Bool)
         (S Bool))
  (let ((a!1 (not (and (not (<= P 0)) (Proc40 P O N S M))))
        (a!2 (not (and (= E H) (= D L) (= C I) (= Q R) (= B J)))))
  (let ((a!3 (or (= I 0) (not (and (= H G) (not R))) a!2))
        (a!4 (or (not (and (= I 0) (= F S))) (not (and (= H A) (= R F))) a!2)))
  (let ((a!5 (and (or (= I 1) (and a!3 a!4)) (or (not (= I 1)) (and a!3 a!4)))))
  (let ((a!6 (not (or (not S)
                      a!1
                      (not (Proc39 M O N S L K))
                      (not (Proc38 M L K S))
                      (not (Proc37 M L K S))
                      (not (Proc36 M L K S))
                      (not (Proc35 M L K S))
                      (not (Proc34 M L K S))
                      (not (Proc41 M L K S J I))
                      a!5))))
    (=> a!6 (Proc42 P O N S E D C Q B))))))))
(assert (forall ((A Int) (B Int) (C Int) (D Int) (F Bool))
  (let ((a!1 (not (or (not F) (not (= D 1))))))
    (=> a!1 (Proc43 C B A F D)))))
(assert (forall ((A Int) (B Int) (C Int) (D Int) (F Bool))
  (let ((a!1 (not (or (not F) (not (= D 1))))))
    (=> a!1 (Proc44 C B A F D)))))
(assert (forall ((A Int) (B Int) (C Int) (D Int) (F Bool))
  (let ((a!1 (not (or (not F) (not (= D 1))))))
    (=> a!1 (Proc45 C B A F D)))))
(assert (forall ((A Int) (B Int) (C Int) (D Int) (F Bool))
  (let ((a!1 (not (or (not F) (not (= D 0))))))
    (=> a!1 (Proc46 C B A F D)))))
(assert (forall ((A Int) (B Int) (C Int) (D Int) (F Bool))
  (let ((a!1 (not (or (not F) (not (= D 1))))))
    (=> a!1 (Proc47 C B A F D)))))
(assert (forall ((A Int) (B Int) (C Int) (D Int) (F Bool))
  (let ((a!1 (not (or (not F) (not (= D 0))))))
    (=> a!1 (Proc48 C B A F D)))))
(assert (forall ((A Int) (B Int) (C Int) (D Int) (F Bool))
  (let ((a!1 (not (or (not F) (not (= D 1))))))
    (=> a!1 (Proc49 C B A F D)))))
(assert (forall ((A Int) (B Int) (C Int) (D Int) (F Bool))
  (let ((a!1 (not (or (not F) (not (= D 1))))))
    (=> a!1 (Proc50 C B A F D)))))
(assert (forall ((A Int) (B Int) (C Int) (D Int) (F Bool))
  (let ((a!1 (not (or (not F) (not (= D 0))))))
    (=> a!1 (Proc51 C B A F D)))))
(assert (forall ((A Int) (B Int) (C Int) (D Int) (F Bool))
  (let ((a!1 (not (or (not F) (not (= D 0))))))
    (=> a!1 (Proc52 C B A F D)))))
(assert (forall ((A Int) (B Int) (C Int) (D Int) (F Bool))
  (let ((a!1 (not (or (not F) (not (= D 0))))))
    (=> a!1 (Proc53 C B A F D)))))
(assert (forall ((A Int) (B Int) (C Int) (D Int) (E Int) (F Bool))
  (let ((a!1 (or (not F) (not (= E (- 1073741823))) (not (= D E)))))
    (=> (not a!1) (Proc54 C B A F D)))))
(assert (forall ((A Int) (B Int) (C Int) (D Int) (E Int) (F Bool) (G Int) (H Int))
  (let ((a!1 (not (or (not F) (not (Proc30 H G E F D C B)) (not (= A B))))))
    (=> a!1 (Proc7 H G E F D C A)))))
(assert (forall ((A Int) (B Int) (C Int) (D Int) (E Int) (F Bool))
  (=> F (Proc0 E D C F B A))))
(assert (forall ((A Int) (B Int) (C Int) (D Int) (F Bool))
  (let ((a!1 (not (or (not F) (not (= D 0))))))
    (=> a!1 (Proc55 C B A F D)))))
(assert (forall ((A Int) (B Int) (C Int) (D Int) (E Int) (F Bool) (G Int))
  (let ((a!1 (not (or (not F) (= G 0) (not (= E D))))))
    (=> a!1 (Proc18 C B A F G E)))))
(assert (forall ((A Int)
         (B Int)
         (C Int)
         (D Int)
         (E Int)
         (F Bool)
         (G Int)
         (H Int)
         (I Int)
         (J Int)
         (K Int)
         (L Int)
         (M Int)
         (N Int)
         (O Int)
         (P Int))
  (let ((a!1 (and (not (<= N (+ 1 P))) (not (<= N O))))
        (a!2 (not (and (= E H) (= D J) (= C I)))))
  (let ((a!3 (or (not (and (= I 1) (= H G))) a!2)))
  (let ((a!4 (and a!3 (or (= I 1) (= B 0) (not (= H A)) a!2))))
  (let ((a!5 (not (or (not F)
                      (not (= P O))
                      (not a!1)
                      (not (Proc33 N M L F P K J I))
                      a!4))))
    (=> a!5 (Proc13 O M L F B K E D C))))))))
(assert (forall ((A Int) (B Int) (C Int) (D Int) (F Bool)) (=> F (Proc6 D C B F A))))
(assert (forall ((A Int) (B Int) (C Int) (D Int) (F Bool)) (=> F (Proc3 D C B F A))))
(assert (forall ((A Int) (B Int) (C Int) (D Int) (E Int) (F Bool))
  (=> (not (or (not F) (= E 0))) (Proc2 D C B F A E))))
(assert (forall ((A Int) (B Int) (C Int) (D Int) (F Bool)) (=> F (Proc4 D C B F A))))
(assert (forall ((A Int) (B Int) (C Int) (D Int) (E Int) (F Bool) (G Int))
  (let ((a!1 (not (or (not F) (not (= G E))))))
    (=> a!1 (Proc10 D C B F A G)))))
(assert (forall ((A Int)
         (B Int)
         (C Int)
         (D Int)
         (E Int)
         (F Bool)
         (G Int)
         (H Int)
         (I Int)
         (J Int)
         (K Int)
         (L Int)
         (M Int)
         (N Int)
         (O Int)
         (P Int)
         (T Int)
         (U Int)
         (V Int)
         (W Int)
         (X Int)
         (Y Int)
         (Z Int)
         (A1 Int)
         (B1 Int)
         (C1 Int)
         (D1 Int)
         (E1 Int)
         (F1 Int)
         (G1 Int)
         (H1 Int)
         (I1 Int)
         (J1 Int)
         (K1 Int)
         (L1 Int)
         (M1 Int)
         (N1 Int)
         (O1 Int)
         (P1 Int)
         (Q1 Int)
         (R1 Int)
         (S1 Int)
         (T1 Int))
  (let ((a!1 (not (and (= G1 I1) (= F1 J1) (= E1 H1))))
        (a!11 (not (and (not (= O 1)) (= M1 T) (= L1 P) (= K1 O)))))
  (let ((a!2 (or (= P1 0)
                 (not (Proc11 S1 R1 Q1 F O1 T1 N1))
                 (not (= M1 N1))
                 (not (and (= L1 S1) (= K1 Q1)))
                 (not (Proc58 L1 R1 K1 F M1 T1))
                 (= T1 0)
                 (not (= J1 L1))
                 (not (and (= I1 M1) (= H1 K1)))
                 a!1))
        (a!3 (or (= P1 0)
                 (not (Proc8 S1 R1 Q1 F O1 T1 D1 C1))
                 (not (= M1 D1))
                 (not (and (= L1 C1) (= K1 Q1)))
                 (not (Proc58 L1 R1 K1 F M1 T1))
                 (= T1 0)
                 (not (= J1 L1))
                 (not (and (= I1 M1) (= H1 K1)))
                 a!1))
        (a!4 (or (= P1 0)
                 (not (Proc22 S1 R1 Q1 F O1 T1 B1 A1))
                 (not (= M1 B1))
                 (not (and (= L1 A1) (= K1 Q1)))
                 (not (Proc58 L1 R1 K1 F M1 T1))
                 (= T1 0)
                 (not (= J1 L1))
                 (not (and (= I1 M1) (= H1 K1)))
                 a!1))
        (a!5 (or (= P1 0)
                 (not (Proc28 S1 R1 Q1 F O1 T1 Z Y))
                 (not (= M1 Z))
                 (not (and (= L1 Y) (= K1 Q1)))
                 (not (Proc58 L1 R1 K1 F M1 T1))
                 (= T1 0)
                 (not (= J1 L1))
                 (not (and (= I1 M1) (= H1 K1)))
                 a!1))
        (a!6 (or (= P1 0)
                 (not (Proc54 S1 R1 Q1 F X))
                 (not (= M1 X))
                 (not (and (= L1 S1) (= K1 Q1)))
                 (not (Proc58 L1 R1 K1 F M1 T1))
                 (= T1 0)
                 (not (= J1 L1))
                 (not (and (= I1 M1) (= H1 K1)))
                 a!1))
        (a!7 (or (= P1 0)
                 (not (Proc54 S1 R1 Q1 F W))
                 (not (= M1 W))
                 (not (and (= L1 S1) (= K1 Q1)))
                 (not (Proc58 L1 R1 K1 F M1 T1))
                 (= T1 0)
                 (not (= J1 L1))
                 (not (and (= I1 M1) (= H1 K1)))
                 a!1))
        (a!8 (or (= P1 0)
                 (not (Proc54 S1 R1 Q1 F V))
                 (not (= M1 V))
                 (not (and (= L1 S1) (= K1 Q1)))
                 (not (Proc58 L1 R1 K1 F M1 T1))
                 (= T1 0)
                 (not (= J1 L1))
                 (not (and (= I1 M1) (= H1 K1)))
                 a!1))
        (a!9 (or (not (Proc54 S1 R1 Q1 F U))
                 (not (= M1 U))
                 (not (and (= L1 S1) (= K1 Q1)))
                 (not (Proc58 L1 R1 K1 F M1 T1))
                 (= T1 0)
                 (not (= J1 L1))
                 (not (and (= I1 M1) (= H1 K1)))
                 a!1))
        (a!10 (or (not (and (= O 1) (= J1 P) (= I1 N) (= H1 O))) a!1))
        (a!12 (or a!11
                  (not (Proc58 L1 R1 K1 F M1 T1))
                  (= T1 0)
                  (not (= J1 L1))
                  (not (and (= I1 M1) (= H1 K1)))
                  a!1))
        (a!13 (or (= P1 0)
                  (not (Proc17 S1 R1 Q1 F O1 T1 M L))
                  (not (= M1 M))
                  (not (and (= L1 L) (= K1 Q1)))
                  (not (Proc58 L1 R1 K1 F M1 T1))
                  (= T1 0)
                  (not (= J1 L1))
                  (not (and (= I1 M1) (= H1 K1)))
                  a!1))
        (a!14 (or (= P1 0)
                  (not (Proc23 S1 R1 Q1 F O1 T1 K))
                  (not (= M1 K))
                  (not (and (= L1 S1) (= K1 Q1)))
                  (not (Proc58 L1 R1 K1 F M1 T1))
                  (= T1 0)
                  (not (= J1 L1))
                  (not (and (= I1 M1) (= H1 K1)))
                  a!1))
        (a!15 (or (not (Proc54 S1 R1 Q1 F J))
                  (not (= M1 J))
                  (not (and (= L1 S1) (= K1 Q1)))
                  (not (Proc58 L1 R1 K1 F M1 T1))
                  (= T1 0)
                  (not (= J1 L1))
                  (not (and (= I1 M1) (= H1 K1)))
                  a!1))
        (a!16 (or (= P1 0)
                  (not (Proc5 S1 R1 Q1 F O1 T1 I H))
                  (not (= M1 I))
                  (not (and (= L1 H) (= K1 Q1)))
                  (not (Proc58 L1 R1 K1 F M1 T1))
                  (= T1 0)
                  (not (= J1 L1))
                  (not (and (= I1 M1) (= H1 K1)))
                  a!1))
        (a!17 (or (= P1 0)
                  (not (Proc59 S1 R1 Q1 F T1))
                  (not (Proc20 S1 R1 Q1 F O1 T1 G))
                  (not (= M1 G))
                  (not (and (= L1 S1) (= K1 Q1)))
                  (not (Proc58 L1 R1 K1 F M1 T1))
                  (= T1 0)
                  (not (= J1 L1))
                  (not (and (= I1 M1) (= H1 K1)))
                  a!1))
        (a!18 (or (= P1 0)
                  (not (Proc25 S1 R1 Q1 F O1 T1 E))
                  (not (= M1 E))
                  (not (and (= L1 S1) (= K1 Q1)))
                  (not (Proc58 L1 R1 K1 F M1 T1))
                  (= T1 0)
                  (not (= J1 L1))
                  (not (and (= I1 M1) (= H1 K1)))
                  a!1))
        (a!19 (or (not (Proc54 S1 R1 Q1 F D))
                  (not (= M1 D))
                  (not (and (= L1 S1) (= K1 Q1)))
                  (not (Proc58 L1 R1 K1 F M1 T1))
                  (= T1 0)
                  (not (= J1 L1))
                  (not (and (= I1 M1) (= H1 K1)))
                  a!1))
        (a!20 (or (= P1 0)
                  (not (Proc19 S1 R1 Q1 F O1 T1 C))
                  (not (= M1 C))
                  (not (and (= L1 S1) (= K1 Q1)))
                  (not (Proc58 L1 R1 K1 F M1 T1))
                  (= T1 0)
                  (not (= J1 L1))
                  (not (and (= I1 M1) (= H1 K1)))
                  a!1))
        (a!21 (or (not (= B 1))
                  (= B 0)
                  (= P1 0)
                  (not (Proc19 S1 R1 Q1 F O1 T1 C))
                  (not (= M1 C))
                  (not (and (= L1 S1) (= K1 Q1)))
                  (not (Proc58 L1 R1 K1 F M1 T1))
                  (= T1 0)
                  (not (= J1 L1))
                  (not (and (= I1 M1) (= H1 K1)))
                  a!1)))
  (let ((a!22 (and (or (= P1 0) (and a!20 a!21))
                   (or (not (= A 1)) (= A 0) (= P1 0) (and a!20 a!21)))))
  (let ((a!23 (and a!2
                   a!3
                   a!4
                   a!5
                   a!6
                   a!7
                   a!8
                   a!9
                   (or (= P1 0)
                       (not (Proc15 S1 R1 Q1 F O1 T1 T P O))
                       (and a!10 a!12))
                   a!13
                   a!14
                   a!15
                   a!16
                   a!17
                   a!18
                   a!19
                   (or (= P1 0) a!22))))
  (let ((a!24 (not (or (not F)
                       (= T1 0)
                       (not (Proc56 S1 R1 Q1 F T1))
                       (= P1 0)
                       (not (Proc57 S1 R1 Q1 F))
                       a!23))))
    (=> a!24 (Proc60 S1 R1 Q1 F O1 T1 G1 F1 E1)))))))))
(assert (forall ((A Int) (B Int) (C Int) (D Int) (E Int) (F Bool) (G Int))
  (let ((a!1 (not (or (not F)
                      (not (Proc61 G E D F))
                      (not (Proc54 G E D F C))
                      (not (Proc62 G E D F))))))
    (=> a!1 (Proc63 G E D F B A)))))
(assert (forall ((A Int) (B Int) (C Int) (D Int) (E Int) (F Bool))
  (=> (not (or (not F) (= E 0) (= D 0))) (Proc59 C B A F E))))
(assert (forall ((A Int) (B Int) (C Int) (D Int) (F Bool))
  (=> (not (or (not F) (= D 0))) (Proc56 C B A F D))))
(assert (forall ((A Int)
         (B Int)
         (C Int)
         (D Int)
         (E Int)
         (F Bool)
         (G Int)
         (H Int)
         (I Int)
         (J Int)
         (K Int)
         (L Int)
         (M Int)
         (N Int)
         (O Int)
         (P Int)
         (T Int)
         (U Int)
         (V Int)
         (W Int)
         (X Int)
         (Y Int)
         (Z Int)
         (A1 Int)
         (B1 Int)
         (C1 Int)
         (D1 Int)
         (E1 Int)
         (F1 Int)
         (G1 Int))
  (let ((a!1 (or (not (= K 1))
                 (not (and (= J L) (= I K)))
                 (not (and (= H J) (= G I)))))
        (a!2 (or (= K 1)
                 (not (and (= J L) (= I K)))
                 (not (and (= H J) (= G I)))))
        (a!3 (or (not (= D1 0))
                 (not (and (= J G1) (= I E1)))
                 (not (and (= H J) (= G I)))))
        (a!4 (or (= C1 0)
                 (not (Proc64 G1 F1 E1 F))
                 (not (Proc63 G1 F1 E1 F E D))
                 (not (and (= J G1) (= I E1)))
                 (not (and (= H J) (= G I)))))
        (a!5 (or (not (= C1 0))
                 (not (and (= J G1) (= I E1)))
                 (not (and (= H J) (= G I)))))
        (a!6 (or (not (and (= J G1) (= I E1))) (not (and (= H J) (= G I)))))
        (a!7 (or (not (Proc29 G1 F1 E1 F C))
                 (not (Proc1 G1 F1 E1 F B A))
                 (not (and (= J G1) (= I E1)))
                 (not (and (= H J) (= G I))))))
  (let ((a!8 (and (or (= D1 0)
                      (not (Proc64 G1 F1 E1 F))
                      (not (Proc60 G1 F1 E1 F O N M L K))
                      (and a!1 a!2))
                  a!3
                  a!4
                  a!5
                  a!6
                  a!7)))
  (let ((a!9 (not (or (not F)
                      (not (Proc45 G1 F1 E1 F D1))
                      (not (Proc52 G1 F1 E1 F C1))
                      (not (Proc46 G1 F1 E1 F B1))
                      (not (Proc51 G1 F1 E1 F A1))
                      (not (Proc44 G1 F1 E1 F Z))
                      (not (Proc48 G1 F1 E1 F Y))
                      (not (Proc55 G1 F1 E1 F X))
                      (not (Proc53 G1 F1 E1 F W))
                      (not (Proc43 G1 F1 E1 F V))
                      (not (Proc49 G1 F1 E1 F U))
                      (not (Proc50 G1 F1 E1 F T))
                      (not (Proc47 G1 F1 E1 F P))
                      a!8))))
    (=> a!9 (Proc41 G1 F1 E1 F H G)))))))
(assert (forall ((A Int) (B Int) (C Int) (F Bool)) (=> F (Proc57 C B A F))))
(assert (forall ((A Int) (B Int) (C Int) (D Int) (E Int) (F Bool))
  (=> F (Proc58 E D C F B A))))
(assert (forall ((A Int) (B Int) (C Int) (F Bool)) (=> F (Proc64 C B A F))))
(assert (forall ((A Int) (B Int) (C Int) (F Bool)) (=> F (Proc61 C B A F))))
(assert (forall ((A Int) (B Int) (C Int) (F Bool)) (=> F (Proc62 C B A F))))
(assert (forall ((A Int)
         (B Int)
         (C Int)
         (D Int)
         (E Int)
         (F Bool)
         (G Int)
         (H Int)
         (I Int)
         (J Int)
         (K Int)
         (L Int)
         (M Int)
         (N Int)
         (O Int)
         (P Int)
         (T Int)
         (U Int)
         (V Int)
         (W Int)
         (X Int)
         (Y Int)
         (Z Int)
         (A1 Int)
         (B1 Int)
         (C1 Int)
         (D1 Int)
         (E1 Int)
         (F1 Int)
         (G1 Int)
         (H1 Int)
         (I1 Int)
         (J1 Int)
         (K1 Int)
         (L1 Int)
         (M1 Int)
         (N1 Int)
         (O1 Int)
         (P1 Int)
         (Q1 Int)
         (R1 Int)
         (S1 Int)
         (T1 Int)
         (U1 Int)
         (V1 Int)
         (W1 Int)
         (X1 Int)
         (Y1 Int)
         (Z1 Int)
         (A2 Int)
         (B2 Int)
         (C2 Int)
         (D2 Int)
         (E2 Int)
         (F2 Int)
         (G2 Int)
         (H2 Int))
  (let ((a!1 (and (= H2 G2) (not (<= F2 (+ 4 H2)))))
        (a!2 (and (not (<= F2 G2))
                  (= E2 F2)
                  (not (<= D2 (+ 332 E2)))
                  (not (<= D2 F2))))
        (a!3 (and (= C2 D2)
                  (not (<= B2 (+ 4 C2)))
                  (not (<= B2 D2))
                  (= A2 B2)
                  (not (<= Z1 (+ 536 A2)))
                  (not (<= Z1 B2))
                  (= Y1 Z1)
                  (not (<= X1 (+ 240 Y1)))))
        (a!4 (and (not (<= X1 Z1))
                  (= W1 X1)
                  (not (<= V1 (+ 240 W1)))
                  (not (<= V1 X1))
                  (= U1 V1)
                  (not (<= T1 (+ 536 U1)))
                  (not (<= T1 V1))
                  (= S1 T1)
                  (not (<= R1 (+ 240 S1)))
                  (not (<= R1 T1))
                  (= Q1 R1)
                  (not (<= P1 (+ 4 Q1)))
                  (not (<= P1 R1))
                  (= O1 P1)
                  (not (<= N1 (+ 536 O1)))
                  (not (<= N1 P1))
                  (= M1 N1)
                  (not (<= L1 (+ 332 M1)))
                  (not (<= L1 N1))
                  (= K1 L1)
                  (not (<= J1 (+ 60 K1)))
                  (not (<= J1 L1))
                  (= I1 J1)
                  (not (<= H1 (+ 240 I1)))
                  (not (<= H1 J1))
                  (= G1 H1)
                  (not (<= F1 (+ 240 G1)))
                  (not (<= F1 H1))
                  (= E1 F1)
                  (not (<= D1 (+ 332 E1)))
                  (not (<= D1 F1))
                  (= C1 D1)
                  (not (<= B1 (+ 4 C1)))
                  (not (<= B1 D1))
                  (= A1 B1)
                  (not (<= Z (+ 536 A1)))
                  (not (<= Z B1))
                  (= Y Z)
                  (not (<= X (+ 240 Y)))
                  (not (<= X Z))
                  (= W X)
                  (not (<= V (+ 240 W)))
                  (not (<= V X))
                  (= U V)
                  (not (<= T (+ 240 U)))
                  (not (<= T V))
                  (= P T)
                  (not (<= O (+ 240 P)))
                  (not (<= O T))
                  (= N O)
                  (not (<= M (+ 240 N)))
                  (not (<= M O))
                  (= L M)
                  (not (<= K (+ 40 L)))
                  (not (<= K M))
                  (= J K)
                  (not (<= I (+ 332 J)))
                  (not (<= I K))
                  (= H I)
                  (not (<= G (+ 4 H)))
                  (not (<= G I))
                  (= E G)
                  (not (<= D (+ 40 E)))
                  (not (<= D G)))))
  (let ((a!5 (not (or (not F)
                      (not a!1)
                      (not a!2)
                      (not a!3)
                      (not a!4)
                      (not (= C D))))))
    (=> a!5 (Proc40 G2 B A F C))))))
(assert (forall ((A Int)
         (B Int)
         (C Int)
         (D Int)
         (E Int)
         (F Bool)
         (G Int)
         (H Int)
         (I Int)
         (J Int)
         (K Int)
         (L Int)
         (Q Bool)
         (R Bool))
  (let ((a!1 (or (not R) (not (and (Proc42 L K J true I H G Q E) (not Q))))))
    (=> (not a!1) (Proc65 L K J R D F C B A)))))
(assert (let ((a!1 (exists ((V0 Int)
                    (V1 Int)
                    (V2 Int)
                    (V3 Bool)
                    (V4 Int)
                    (V5 Bool)
                    (V6 Int)
                    (V7 Int)
                    (V8 Int))
             (not (=> (and (Proc65 V0 V1 V2 V3 V4 V5 V6 V7 V8) (not false))
                      false)))))
  (not a!1)))

(check-sat)
